n1 = 10;
adjacent1 = [| 0, 0, 1, 0, 0, 0, 1, 0, 0, 0
| 0, 0, 1, 1, 0, 0, 0, 0, 0, 0
| 1, 1, 0, 0, 1, 0, 0, 0, 0, 0
| 0, 1, 0, 0, 0, 0, 0, 1, 0, 0
| 0, 0, 1, 0, 0, 0, 0, 0, 0, 0
| 0, 0, 0, 0, 0, 0, 0, 1, 1, 1
| 1, 0, 0, 0, 0, 0, 0, 0, 0, 1
| 0, 0, 0, 1, 0, 1, 0, 0, 0, 0
| 0, 0, 0, 0, 0, 1, 0, 0, 0, 0
| 0, 0, 0, 0, 0, 1, 1, 0, 0, 0 |];
n2 = 10;
adjacent2 = [| 0, 0, 1, 0, 0, 0, 1, 1, 0, 0
| 0, 0, 0, 0, 0, 1, 1, 0, 0, 0
| 1, 0, 0, 0, 0, 0, 0, 0, 0, 0
| 0, 0, 0, 0, 0, 0, 0, 0, 0, 1
| 0, 0, 0, 0, 0, 0, 0, 1, 1, 0
| 0, 1, 0, 0, 0, 0, 0, 0, 0, 1
| 1, 1, 0, 0, 0, 0, 0, 0, 0, 0
| 1, 0, 0, 0, 1, 0, 0, 0, 0, 0
| 0, 0, 0, 0, 1, 0, 0, 0, 0, 1
| 0, 0, 0, 1, 0, 1, 0, 0, 1, 0 |];
vertexDeletionCost = [45, 45, 45, 45, 45, 45, 45, 45, 45, 45];
vertexInsertionCost = [45, 45, 45, 45, 45, 45, 45, 45, 45, 45];
vertexSubstitutionCost = [| 90, 90, 90, 90, 90, 30.80990100600779, 90, 90, 90, 90
| 90, 90, 90, 90, 90, 90, 90, 90, 20.65187642806338, 90
| 90, 90, 90, 90, 90, 90, 90, 90, 90, 36.776351096866584
| 90, 90, 90, 90, 33.811980125393426, 90, 57.002192940272046, 47.10095540432275, 90, 90
| 90, 90, 90, 29.231831964486933, 90, 90, 90, 90, 90, 90
| 35.12833614050059, 90, 90, 90, 90, 90, 90, 90, 90, 90
| 90, 37.406550228536176, 90, 90, 90, 90, 90, 90, 90, 90
| 90, 90, 90, 90, 88.90022497159386, 90, 23.005434140654682, 31.953090617340916, 90, 90
| 90, 90, 29.832867780352597, 90, 90, 90, 90, 90, 90, 90
| 90, 90, 90, 90, 90, 90, 20.5, 30.886890422961002, 90, 90 |];
edgeDeletionCost = [| 0.0, 0.0, 7.5, 0.0, 0.0, 0.0, 7.5, 0.0, 0.0, 0.0
| 0.0, 0.0, 7.5, 7.5, 0.0, 0.0, 0.0, 0.0, 0.0, 0.0
| 7.5, 7.5, 0.0, 0.0, 7.5, 0.0, 0.0, 0.0, 0.0, 0.0
| 0.0, 7.5, 0.0, 0.0, 0.0, 0.0, 0.0, 7.5, 0.0, 0.0
| 0.0, 0.0, 7.5, 0.0, 0.0, 0.0, 0.0, 0.0, 0.0, 0.0
| 0.0, 0.0, 0.0, 0.0, 0.0, 0.0, 0.0, 7.5, 7.5, 7.5
| 7.5, 0.0, 0.0, 0.0, 0.0, 0.0, 0.0, 0.0, 0.0, 7.5
| 0.0, 0.0, 0.0, 7.5, 0.0, 7.5, 0.0, 0.0, 0.0, 0.0
| 0.0, 0.0, 0.0, 0.0, 0.0, 7.5, 0.0, 0.0, 0.0, 0.0
| 0.0, 0.0, 0.0, 0.0, 0.0, 7.5, 7.5, 0.0, 0.0, 0.0 |];
edgeInsertionCost = [| 0.0, 0.0, 7.5, 0.0, 0.0, 0.0, 7.5, 7.5, 0.0, 0.0
| 0.0, 0.0, 0.0, 0.0, 0.0, 7.5, 7.5, 0.0, 0.0, 0.0
| 7.5, 0.0, 0.0, 0.0, 0.0, 0.0, 0.0, 0.0, 0.0, 0.0
| 0.0, 0.0, 0.0, 0.0, 0.0, 0.0, 0.0, 0.0, 0.0, 7.5
| 0.0, 0.0, 0.0, 0.0, 0.0, 0.0, 0.0, 7.5, 7.5, 0.0
| 0.0, 7.5, 0.0, 0.0, 0.0, 0.0, 0.0, 0.0, 0.0, 7.5
| 7.5, 7.5, 0.0, 0.0, 0.0, 0.0, 0.0, 0.0, 0.0, 0.0
| 7.5, 0.0, 0.0, 0.0, 7.5, 0.0, 0.0, 0.0, 0.0, 0.0
| 0.0, 0.0, 0.0, 0.0, 7.5, 0.0, 0.0, 0.0, 0.0, 7.5
| 0.0, 0.0, 0.0, 7.5, 0.0, 7.5, 0.0, 0.0, 7.5, 0.0 |];
edgeSubstitutionCost = array4d(1..n1, 1..n1, 1..n2, 1..n2, [0, 0, 7.5, 0, 0, 0, 7.5, 7.5, 0, 0, 0, 0, 0, 0, 0, 7.5, 7.5, 0, 0, 0, 7.5, 0, 0, 0, 0, 0, 0, 0, 0, 0, 0, 0, 0, 0, 0, 0, 0, 0, 0, 7.5, 0, 0, 0, 0, 0, 0, 0, 7.5, 7.5, 0, 0, 7.5, 0, 0, 0, 0, 0, 0, 0, 7.5, 7.5, 7.5, 0, 0, 0, 0, 0, 0, 0, 0, 7.5, 0, 0, 0, 7.5, 0, 0, 0, 0, 0, 0, 0, 0, 0, 7.5, 0, 0, 0, 0, 7.5, 0, 0, 0, 7.5, 0, 7.5, 0, 0, 7.5, 0, 0, 0, 7.5, 0, 0, 0, 7.5, 7.5, 0, 0, 0, 0, 0, 0, 0, 7.5, 7.5, 0, 0, 0, 7.5, 0, 0, 0, 0, 0, 0, 0, 0, 0, 0, 0, 0, 0, 0, 0, 0, 0, 0, 7.5, 0, 0, 0, 0, 0, 0, 0, 7.5, 7.5, 0, 0, 7.5, 0, 0, 0, 0, 0, 0, 0, 7.5, 7.5, 7.5, 0, 0, 0, 0, 0, 0, 0, 0, 7.5, 0, 0, 0, 7.5, 0, 0, 0, 0, 0, 0, 0, 0, 0, 7.5, 0, 0, 0, 0, 7.5, 0, 0, 0, 7.5, 0, 7.5, 0, 0, 7.5, 0, 7.5, 7.5, 0.0, 7.5, 7.5, 7.5, 0.0, 0.0, 7.5, 7.5, 7.5, 7.5, 7.5, 7.5, 7.5, 0.0, 0.0, 7.5, 7.5, 7.5, 0.0, 7.5, 7.5, 7.5, 7.5, 7.5, 7.5, 7.5, 7.5, 7.5, 7.5, 7.5, 7.5, 7.5, 7.5, 7.5, 7.5, 7.5, 7.5, 0.0, 7.5, 7.5, 7.5, 7.5, 7.5, 7.5, 7.5, 0.0, 0.0, 7.5, 7.5, 0.0, 7.5, 7.5, 7.5, 7.5, 7.5, 7.5, 7.5, 0.0, 0.0, 0.0, 7.5, 7.5, 7.5, 7.5, 7.5, 7.5, 7.5, 7.5, 0.0, 7.5, 7.5, 7.5, 0.0, 7.5, 7.5, 7.5, 7.5, 7.5, 7.5, 7.5, 7.5, 7.5, 0.0, 7.5, 7.5, 7.5, 7.5, 0.0, 7.5, 7.5, 7.5, 0.0, 7.5, 0.0, 7.5, 7.5, 0.0, 7.5, 0, 0, 7.5, 0, 0, 0, 7.5, 7.5, 0, 0, 0, 0, 0, 0, 0, 7.5, 7.5, 0, 0, 0, 7.5, 0, 0, 0, 0, 0, 0, 0, 0, 0, 0, 0, 0, 0, 0, 0, 0, 0, 0, 7.5, 0, 0, 0, 0, 0, 0, 0, 7.5, 7.5, 0, 0, 7.5, 0, 0, 0, 0, 0, 0, 0, 7.5, 7.5, 7.5, 0, 0, 0, 0, 0, 0, 0, 0, 7.5, 0, 0, 0, 7.5, 0, 0, 0, 0, 0, 0, 0, 0, 0, 7.5, 0, 0, 0, 0, 7.5, 0, 0, 0, 7.5, 0, 7.5, 0, 0, 7.5, 0, 0, 0, 7.5, 0, 0, 0, 7.5, 7.5, 0, 0, 0, 0, 0, 0, 0, 7.5, 7.5, 0, 0, 0, 7.5, 0, 0, 0, 0, 0, 0, 0, 0, 0, 0, 0, 0, 0, 0, 0, 0, 0, 0, 7.5, 0, 0, 0, 0, 0, 0, 0, 7.5, 7.5, 0, 0, 7.5, 0, 0, 0, 0, 0, 0, 0, 7.5, 7.5, 7.5, 0, 0, 0, 0, 0, 0, 0, 0, 7.5, 0, 0, 0, 7.5, 0, 0, 0, 0, 0, 0, 0, 0, 0, 7.5, 0, 0, 0, 0, 7.5, 0, 0, 0, 7.5, 0, 7.5, 0, 0, 7.5, 0, 0, 0, 7.5, 0, 0, 0, 7.5, 7.5, 0, 0, 0, 0, 0, 0, 0, 7.5, 7.5, 0, 0, 0, 7.5, 0, 0, 0, 0, 0, 0, 0, 0, 0, 0, 0, 0, 0, 0, 0, 0, 0, 0, 7.5, 0, 0, 0, 0, 0, 0, 0, 7.5, 7.5, 0, 0, 7.5, 0, 0, 0, 0, 0, 0, 0, 7.5, 7.5, 7.5, 0, 0, 0, 0, 0, 0, 0, 0, 7.5, 0, 0, 0, 7.5, 0, 0, 0, 0, 0, 0, 0, 0, 0, 7.5, 0, 0, 0, 0, 7.5, 0, 0, 0, 7.5, 0, 7.5, 0, 0, 7.5, 0, 7.5, 7.5, 0.0, 7.5, 7.5, 7.5, 0.0, 0.0, 7.5, 7.5, 7.5, 7.5, 7.5, 7.5, 7.5, 0.0, 0.0, 7.5, 7.5, 7.5, 0.0, 7.5, 7.5, 7.5, 7.5, 7.5, 7.5, 7.5, 7.5, 7.5, 7.5, 7.5, 7.5, 7.5, 7.5, 7.5, 7.5, 7.5, 7.5, 0.0, 7.5, 7.5, 7.5, 7.5, 7.5, 7.5, 7.5, 0.0, 0.0, 7.5, 7.5, 0.0, 7.5, 7.5, 7.5, 7.5, 7.5, 7.5, 7.5, 0.0, 0.0, 0.0, 7.5, 7.5, 7.5, 7.5, 7.5, 7.5, 7.5, 7.5, 0.0, 7.5, 7.5, 7.5, 0.0, 7.5, 7.5, 7.5, 7.5, 7.5, 7.5, 7.5, 7.5, 7.5, 0.0, 7.5, 7.5, 7.5, 7.5, 0.0, 7.5, 7.5, 7.5, 0.0, 7.5, 0.0, 7.5, 7.5, 0.0, 7.5, 0, 0, 7.5, 0, 0, 0, 7.5, 7.5, 0, 0, 0, 0, 0, 0, 0, 7.5, 7.5, 0, 0, 0, 7.5, 0, 0, 0, 0, 0, 0, 0, 0, 0, 0, 0, 0, 0, 0, 0, 0, 0, 0, 7.5, 0, 0, 0, 0, 0, 0, 0, 7.5, 7.5, 0, 0, 7.5, 0, 0, 0, 0, 0, 0, 0, 7.5, 7.5, 7.5, 0, 0, 0, 0, 0, 0, 0, 0, 7.5, 0, 0, 0, 7.5, 0, 0, 0, 0, 0, 0, 0, 0, 0, 7.5, 0, 0, 0, 0, 7.5, 0, 0, 0, 7.5, 0, 7.5, 0, 0, 7.5, 0, 0, 0, 7.5, 0, 0, 0, 7.5, 7.5, 0, 0, 0, 0, 0, 0, 0, 7.5, 7.5, 0, 0, 0, 7.5, 0, 0, 0, 0, 0, 0, 0, 0, 0, 0, 0, 0, 0, 0, 0, 0, 0, 0, 7.5, 0, 0, 0, 0, 0, 0, 0, 7.5, 7.5, 0, 0, 7.5, 0, 0, 0, 0, 0, 0, 0, 7.5, 7.5, 7.5, 0, 0, 0, 0, 0, 0, 0, 0, 7.5, 0, 0, 0, 7.5, 0, 0, 0, 0, 0, 0, 0, 0, 0, 7.5, 0, 0, 0, 0, 7.5, 0, 0, 0, 7.5, 0, 7.5, 0, 0, 7.5, 0, 0, 0, 7.5, 0, 0, 0, 7.5, 7.5, 0, 0, 0, 0, 0, 0, 0, 7.5, 7.5, 0, 0, 0, 7.5, 0, 0, 0, 0, 0, 0, 0, 0, 0, 0, 0, 0, 0, 0, 0, 0, 0, 0, 7.5, 0, 0, 0, 0, 0, 0, 0, 7.5, 7.5, 0, 0, 7.5, 0, 0, 0, 0, 0, 0, 0, 7.5, 7.5, 7.5, 0, 0, 0, 0, 0, 0, 0, 0, 7.5, 0, 0, 0, 7.5, 0, 0, 0, 0, 0, 0, 0, 0, 0, 7.5, 0, 0, 0, 0, 7.5, 0, 0, 0, 7.5, 0, 7.5, 0, 0, 7.5, 0, 0, 0, 7.5, 0, 0, 0, 7.5, 7.5, 0, 0, 0, 0, 0, 0, 0, 7.5, 7.5, 0, 0, 0, 7.5, 0, 0, 0, 0, 0, 0, 0, 0, 0, 0, 0, 0, 0, 0, 0, 0, 0, 0, 7.5, 0, 0, 0, 0, 0, 0, 0, 7.5, 7.5, 0, 0, 7.5, 0, 0, 0, 0, 0, 0, 0, 7.5, 7.5, 7.5, 0, 0, 0, 0, 0, 0, 0, 0, 7.5, 0, 0, 0, 7.5, 0, 0, 0, 0, 0, 0, 0, 0, 0, 7.5, 0, 0, 0, 0, 7.5, 0, 0, 0, 7.5, 0, 7.5, 0, 0, 7.5, 0, 0, 0, 7.5, 0, 0, 0, 7.5, 7.5, 0, 0, 0, 0, 0, 0, 0, 7.5, 7.5, 0, 0, 0, 7.5, 0, 0, 0, 0, 0, 0, 0, 0, 0, 0, 0, 0, 0, 0, 0, 0, 0, 0, 7.5, 0, 0, 0, 0, 0, 0, 0, 7.5, 7.5, 0, 0, 7.5, 0, 0, 0, 0, 0, 0, 0, 7.5, 7.5, 7.5, 0, 0, 0, 0, 0, 0, 0, 0, 7.5, 0, 0, 0, 7.5, 0, 0, 0, 0, 0, 0, 0, 0, 0, 7.5, 0, 0, 0, 0, 7.5, 0, 0, 0, 7.5, 0, 7.5, 0, 0, 7.5, 0, 7.5, 7.5, 0.0, 7.5, 7.5, 7.5, 0.0, 0.0, 7.5, 7.5, 7.5, 7.5, 7.5, 7.5, 7.5, 0.0, 0.0, 7.5, 7.5, 7.5, 0.0, 7.5, 7.5, 7.5, 7.5, 7.5, 7.5, 7.5, 7.5, 7.5, 7.5, 7.5, 7.5, 7.5, 7.5, 7.5, 7.5, 7.5, 7.5, 0.0, 7.5, 7.5, 7.5, 7.5, 7.5, 7.5, 7.5, 0.0, 0.0, 7.5, 7.5, 0.0, 7.5, 7.5, 7.5, 7.5, 7.5, 7.5, 7.5, 0.0, 0.0, 0.0, 7.5, 7.5, 7.5, 7.5, 7.5, 7.5, 7.5, 7.5, 0.0, 7.5, 7.5, 7.5, 0.0, 7.5, 7.5, 7.5, 7.5, 7.5, 7.5, 7.5, 7.5, 7.5, 0.0, 7.5, 7.5, 7.5, 7.5, 0.0, 7.5, 7.5, 7.5, 0.0, 7.5, 0.0, 7.5, 7.5, 0.0, 7.5, 7.5, 7.5, 0.0, 7.5, 7.5, 7.5, 0.0, 0.0, 7.5, 7.5, 7.5, 7.5, 7.5, 7.5, 7.5, 0.0, 0.0, 7.5, 7.5, 7.5, 0.0, 7.5, 7.5, 7.5, 7.5, 7.5, 7.5, 7.5, 7.5, 7.5, 7.5, 7.5, 7.5, 7.5, 7.5, 7.5, 7.5, 7.5, 7.5, 0.0, 7.5, 7.5, 7.5, 7.5, 7.5, 7.5, 7.5, 0.0, 0.0, 7.5, 7.5, 0.0, 7.5, 7.5, 7.5, 7.5, 7.5, 7.5, 7.5, 0.0, 0.0, 0.0, 7.5, 7.5, 7.5, 7.5, 7.5, 7.5, 7.5, 7.5, 0.0, 7.5, 7.5, 7.5, 0.0, 7.5, 7.5, 7.5, 7.5, 7.5, 7.5, 7.5, 7.5, 7.5, 0.0, 7.5, 7.5, 7.5, 7.5, 0.0, 7.5, 7.5, 7.5, 0.0, 7.5, 0.0, 7.5, 7.5, 0.0, 7.5, 0, 0, 7.5, 0, 0, 0, 7.5, 7.5, 0, 0, 0, 0, 0, 0, 0, 7.5, 7.5, 0, 0, 0, 7.5, 0, 0, 0, 0, 0, 0, 0, 0, 0, 0, 0, 0, 0, 0, 0, 0, 0, 0, 7.5, 0, 0, 0, 0, 0, 0, 0, 7.5, 7.5, 0, 0, 7.5, 0, 0, 0, 0, 0, 0, 0, 7.5, 7.5, 7.5, 0, 0, 0, 0, 0, 0, 0, 0, 7.5, 0, 0, 0, 7.5, 0, 0, 0, 0, 0, 0, 0, 0, 0, 7.5, 0, 0, 0, 0, 7.5, 0, 0, 0, 7.5, 0, 7.5, 0, 0, 7.5, 0, 0, 0, 7.5, 0, 0, 0, 7.5, 7.5, 0, 0, 0, 0, 0, 0, 0, 7.5, 7.5, 0, 0, 0, 7.5, 0, 0, 0, 0, 0, 0, 0, 0, 0, 0, 0, 0, 0, 0, 0, 0, 0, 0, 7.5, 0, 0, 0, 0, 0, 0, 0, 7.5, 7.5, 0, 0, 7.5, 0, 0, 0, 0, 0, 0, 0, 7.5, 7.5, 7.5, 0, 0, 0, 0, 0, 0, 0, 0, 7.5, 0, 0, 0, 7.5, 0, 0, 0, 0, 0, 0, 0, 0, 0, 7.5, 0, 0, 0, 0, 7.5, 0, 0, 0, 7.5, 0, 7.5, 0, 0, 7.5, 0, 0, 0, 7.5, 0, 0, 0, 7.5, 7.5, 0, 0, 0, 0, 0, 0, 0, 7.5, 7.5, 0, 0, 0, 7.5, 0, 0, 0, 0, 0, 0, 0, 0, 0, 0, 0, 0, 0, 0, 0, 0, 0, 0, 7.5, 0, 0, 0, 0, 0, 0, 0, 7.5, 7.5, 0, 0, 7.5, 0, 0, 0, 0, 0, 0, 0, 7.5, 7.5, 7.5, 0, 0, 0, 0, 0, 0, 0, 0, 7.5, 0, 0, 0, 7.5, 0, 0, 0, 0, 0, 0, 0, 0, 0, 7.5, 0, 0, 0, 0, 7.5, 0, 0, 0, 7.5, 0, 7.5, 0, 0, 7.5, 0, 0, 0, 7.5, 0, 0, 0, 7.5, 7.5, 0, 0, 0, 0, 0, 0, 0, 7.5, 7.5, 0, 0, 0, 7.5, 0, 0, 0, 0, 0, 0, 0, 0, 0, 0, 0, 0, 0, 0, 0, 0, 0, 0, 7.5, 0, 0, 0, 0, 0, 0, 0, 7.5, 7.5, 0, 0, 7.5, 0, 0, 0, 0, 0, 0, 0, 7.5, 7.5, 7.5, 0, 0, 0, 0, 0, 0, 0, 0, 7.5, 0, 0, 0, 7.5, 0, 0, 0, 0, 0, 0, 0, 0, 0, 7.5, 0, 0, 0, 0, 7.5, 0, 0, 0, 7.5, 0, 7.5, 0, 0, 7.5, 0, 0, 0, 7.5, 0, 0, 0, 7.5, 7.5, 0, 0, 0, 0, 0, 0, 0, 7.5, 7.5, 0, 0, 0, 7.5, 0, 0, 0, 0, 0, 0, 0, 0, 0, 0, 0, 0, 0, 0, 0, 0, 0, 0, 7.5, 0, 0, 0, 0, 0, 0, 0, 7.5, 7.5, 0, 0, 7.5, 0, 0, 0, 0, 0, 0, 0, 7.5, 7.5, 7.5, 0, 0, 0, 0, 0, 0, 0, 0, 7.5, 0, 0, 0, 7.5, 0, 0, 0, 0, 0, 0, 0, 0, 0, 7.5, 0, 0, 0, 0, 7.5, 0, 0, 0, 7.5, 0, 7.5, 0, 0, 7.5, 0, 0, 0, 7.5, 0, 0, 0, 7.5, 7.5, 0, 0, 0, 0, 0, 0, 0, 7.5, 7.5, 0, 0, 0, 7.5, 0, 0, 0, 0, 0, 0, 0, 0, 0, 0, 0, 0, 0, 0, 0, 0, 0, 0, 7.5, 0, 0, 0, 0, 0, 0, 0, 7.5, 7.5, 0, 0, 7.5, 0, 0, 0, 0, 0, 0, 0, 7.5, 7.5, 7.5, 0, 0, 0, 0, 0, 0, 0, 0, 7.5, 0, 0, 0, 7.5, 0, 0, 0, 0, 0, 0, 0, 0, 0, 7.5, 0, 0, 0, 0, 7.5, 0, 0, 0, 7.5, 0, 7.5, 0, 0, 7.5, 0, 7.5, 7.5, 0.0, 7.5, 7.5, 7.5, 0.0, 0.0, 7.5, 7.5, 7.5, 7.5, 7.5, 7.5, 7.5, 0.0, 0.0, 7.5, 7.5, 7.5, 0.0, 7.5, 7.5, 7.5, 7.5, 7.5, 7.5, 7.5, 7.5, 7.5, 7.5, 7.5, 7.5, 7.5, 7.5, 7.5, 7.5, 7.5, 7.5, 0.0, 7.5, 7.5, 7.5, 7.5, 7.5, 7.5, 7.5, 0.0, 0.0, 7.5, 7.5, 0.0, 7.5, 7.5, 7.5, 7.5, 7.5, 7.5, 7.5, 0.0, 0.0, 0.0, 7.5, 7.5, 7.5, 7.5, 7.5, 7.5, 7.5, 7.5, 0.0, 7.5, 7.5, 7.5, 0.0, 7.5, 7.5, 7.5, 7.5, 7.5, 7.5, 7.5, 7.5, 7.5, 0.0, 7.5, 7.5, 7.5, 7.5, 0.0, 7.5, 7.5, 7.5, 0.0, 7.5, 0.0, 7.5, 7.5, 0.0, 7.5, 7.5, 7.5, 0.0, 7.5, 7.5, 7.5, 0.0, 0.0, 7.5, 7.5, 7.5, 7.5, 7.5, 7.5, 7.5, 0.0, 0.0, 7.5, 7.5, 7.5, 0.0, 7.5, 7.5, 7.5, 7.5, 7.5, 7.5, 7.5, 7.5, 7.5, 7.5, 7.5, 7.5, 7.5, 7.5, 7.5, 7.5, 7.5, 7.5, 0.0, 7.5, 7.5, 7.5, 7.5, 7.5, 7.5, 7.5, 0.0, 0.0, 7.5, 7.5, 0.0, 7.5, 7.5, 7.5, 7.5, 7.5, 7.5, 7.5, 0.0, 0.0, 0.0, 7.5, 7.5, 7.5, 7.5, 7.5, 7.5, 7.5, 7.5, 0.0, 7.5, 7.5, 7.5, 0.0, 7.5, 7.5, 7.5, 7.5, 7.5, 7.5, 7.5, 7.5, 7.5, 0.0, 7.5, 7.5, 7.5, 7.5, 0.0, 7.5, 7.5, 7.5, 0.0, 7.5, 0.0, 7.5, 7.5, 0.0, 7.5, 0, 0, 7.5, 0, 0, 0, 7.5, 7.5, 0, 0, 0, 0, 0, 0, 0, 7.5, 7.5, 0, 0, 0, 7.5, 0, 0, 0, 0, 0, 0, 0, 0, 0, 0, 0, 0, 0, 0, 0, 0, 0, 0, 7.5, 0, 0, 0, 0, 0, 0, 0, 7.5, 7.5, 0, 0, 7.5, 0, 0, 0, 0, 0, 0, 0, 7.5, 7.5, 7.5, 0, 0, 0, 0, 0, 0, 0, 0, 7.5, 0, 0, 0, 7.5, 0, 0, 0, 0, 0, 0, 0, 0, 0, 7.5, 0, 0, 0, 0, 7.5, 0, 0, 0, 7.5, 0, 7.5, 0, 0, 7.5, 0, 0, 0, 7.5, 0, 0, 0, 7.5, 7.5, 0, 0, 0, 0, 0, 0, 0, 7.5, 7.5, 0, 0, 0, 7.5, 0, 0, 0, 0, 0, 0, 0, 0, 0, 0, 0, 0, 0, 0, 0, 0, 0, 0, 7.5, 0, 0, 0, 0, 0, 0, 0, 7.5, 7.5, 0, 0, 7.5, 0, 0, 0, 0, 0, 0, 0, 7.5, 7.5, 7.5, 0, 0, 0, 0, 0, 0, 0, 0, 7.5, 0, 0, 0, 7.5, 0, 0, 0, 0, 0, 0, 0, 0, 0, 7.5, 0, 0, 0, 0, 7.5, 0, 0, 0, 7.5, 0, 7.5, 0, 0, 7.5, 0, 7.5, 7.5, 0.0, 7.5, 7.5, 7.5, 0.0, 0.0, 7.5, 7.5, 7.5, 7.5, 7.5, 7.5, 7.5, 0.0, 0.0, 7.5, 7.5, 7.5, 0.0, 7.5, 7.5, 7.5, 7.5, 7.5, 7.5, 7.5, 7.5, 7.5, 7.5, 7.5, 7.5, 7.5, 7.5, 7.5, 7.5, 7.5, 7.5, 0.0, 7.5, 7.5, 7.5, 7.5, 7.5, 7.5, 7.5, 0.0, 0.0, 7.5, 7.5, 0.0, 7.5, 7.5, 7.5, 7.5, 7.5, 7.5, 7.5, 0.0, 0.0, 0.0, 7.5, 7.5, 7.5, 7.5, 7.5, 7.5, 7.5, 7.5, 0.0, 7.5, 7.5, 7.5, 0.0, 7.5, 7.5, 7.5, 7.5, 7.5, 7.5, 7.5, 7.5, 7.5, 0.0, 7.5, 7.5, 7.5, 7.5, 0.0, 7.5, 7.5, 7.5, 0.0, 7.5, 0.0, 7.5, 7.5, 0.0, 7.5, 0, 0, 7.5, 0, 0, 0, 7.5, 7.5, 0, 0, 0, 0, 0, 0, 0, 7.5, 7.5, 0, 0, 0, 7.5, 0, 0, 0, 0, 0, 0, 0, 0, 0, 0, 0, 0, 0, 0, 0, 0, 0, 0, 7.5, 0, 0, 0, 0, 0, 0, 0, 7.5, 7.5, 0, 0, 7.5, 0, 0, 0, 0, 0, 0, 0, 7.5, 7.5, 7.5, 0, 0, 0, 0, 0, 0, 0, 0, 7.5, 0, 0, 0, 7.5, 0, 0, 0, 0, 0, 0, 0, 0, 0, 7.5, 0, 0, 0, 0, 7.5, 0, 0, 0, 7.5, 0, 7.5, 0, 0, 7.5, 0, 0, 0, 7.5, 0, 0, 0, 7.5, 7.5, 0, 0, 0, 0, 0, 0, 0, 7.5, 7.5, 0, 0, 0, 7.5, 0, 0, 0, 0, 0, 0, 0, 0, 0, 0, 0, 0, 0, 0, 0, 0, 0, 0, 7.5, 0, 0, 0, 0, 0, 0, 0, 7.5, 7.5, 0, 0, 7.5, 0, 0, 0, 0, 0, 0, 0, 7.5, 7.5, 7.5, 0, 0, 0, 0, 0, 0, 0, 0, 7.5, 0, 0, 0, 7.5, 0, 0, 0, 0, 0, 0, 0, 0, 0, 7.5, 0, 0, 0, 0, 7.5, 0, 0, 0, 7.5, 0, 7.5, 0, 0, 7.5, 0, 0, 0, 7.5, 0, 0, 0, 7.5, 7.5, 0, 0, 0, 0, 0, 0, 0, 7.5, 7.5, 0, 0, 0, 7.5, 0, 0, 0, 0, 0, 0, 0, 0, 0, 0, 0, 0, 0, 0, 0, 0, 0, 0, 7.5, 0, 0, 0, 0, 0, 0, 0, 7.5, 7.5, 0, 0, 7.5, 0, 0, 0, 0, 0, 0, 0, 7.5, 7.5, 7.5, 0, 0, 0, 0, 0, 0, 0, 0, 7.5, 0, 0, 0, 7.5, 0, 0, 0, 0, 0, 0, 0, 0, 0, 7.5, 0, 0, 0, 0, 7.5, 0, 0, 0, 7.5, 0, 7.5, 0, 0, 7.5, 0, 0, 0, 7.5, 0, 0, 0, 7.5, 7.5, 0, 0, 0, 0, 0, 0, 0, 7.5, 7.5, 0, 0, 0, 7.5, 0, 0, 0, 0, 0, 0, 0, 0, 0, 0, 0, 0, 0, 0, 0, 0, 0, 0, 7.5, 0, 0, 0, 0, 0, 0, 0, 7.5, 7.5, 0, 0, 7.5, 0, 0, 0, 0, 0, 0, 0, 7.5, 7.5, 7.5, 0, 0, 0, 0, 0, 0, 0, 0, 7.5, 0, 0, 0, 7.5, 0, 0, 0, 0, 0, 0, 0, 0, 0, 7.5, 0, 0, 0, 0, 7.5, 0, 0, 0, 7.5, 0, 7.5, 0, 0, 7.5, 0, 0, 0, 7.5, 0, 0, 0, 7.5, 7.5, 0, 0, 0, 0, 0, 0, 0, 7.5, 7.5, 0, 0, 0, 7.5, 0, 0, 0, 0, 0, 0, 0, 0, 0, 0, 0, 0, 0, 0, 0, 0, 0, 0, 7.5, 0, 0, 0, 0, 0, 0, 0, 7.5, 7.5, 0, 0, 7.5, 0, 0, 0, 0, 0, 0, 0, 7.5, 7.5, 7.5, 0, 0, 0, 0, 0, 0, 0, 0, 7.5, 0, 0, 0, 7.5, 0, 0, 0, 0, 0, 0, 0, 0, 0, 7.5, 0, 0, 0, 0, 7.5, 0, 0, 0, 7.5, 0, 7.5, 0, 0, 7.5, 0, 0, 0, 7.5, 0, 0, 0, 7.5, 7.5, 0, 0, 0, 0, 0, 0, 0, 7.5, 7.5, 0, 0, 0, 7.5, 0, 0, 0, 0, 0, 0, 0, 0, 0, 0, 0, 0, 0, 0, 0, 0, 0, 0, 7.5, 0, 0, 0, 0, 0, 0, 0, 7.5, 7.5, 0, 0, 7.5, 0, 0, 0, 0, 0, 0, 0, 7.5, 7.5, 7.5, 0, 0, 0, 0, 0, 0, 0, 0, 7.5, 0, 0, 0, 7.5, 0, 0, 0, 0, 0, 0, 0, 0, 0, 7.5, 0, 0, 0, 0, 7.5, 0, 0, 0, 7.5, 0, 7.5, 0, 0, 7.5, 0, 7.5, 7.5, 0.0, 7.5, 7.5, 7.5, 0.0, 0.0, 7.5, 7.5, 7.5, 7.5, 7.5, 7.5, 7.5, 0.0, 0.0, 7.5, 7.5, 7.5, 0.0, 7.5, 7.5, 7.5, 7.5, 7.5, 7.5, 7.5, 7.5, 7.5, 7.5, 7.5, 7.5, 7.5, 7.5, 7.5, 7.5, 7.5, 7.5, 0.0, 7.5, 7.5, 7.5, 7.5, 7.5, 7.5, 7.5, 0.0, 0.0, 7.5, 7.5, 0.0, 7.5, 7.5, 7.5, 7.5, 7.5, 7.5, 7.5, 0.0, 0.0, 0.0, 7.5, 7.5, 7.5, 7.5, 7.5, 7.5, 7.5, 7.5, 0.0, 7.5, 7.5, 7.5, 0.0, 7.5, 7.5, 7.5, 7.5, 7.5, 7.5, 7.5, 7.5, 7.5, 0.0, 7.5, 7.5, 7.5, 7.5, 0.0, 7.5, 7.5, 7.5, 0.0, 7.5, 0.0, 7.5, 7.5, 0.0, 7.5, 0, 0, 7.5, 0, 0, 0, 7.5, 7.5, 0, 0, 0, 0, 0, 0, 0, 7.5, 7.5, 0, 0, 0, 7.5, 0, 0, 0, 0, 0, 0, 0, 0, 0, 0, 0, 0, 0, 0, 0, 0, 0, 0, 7.5, 0, 0, 0, 0, 0, 0, 0, 7.5, 7.5, 0, 0, 7.5, 0, 0, 0, 0, 0, 0, 0, 7.5, 7.5, 7.5, 0, 0, 0, 0, 0, 0, 0, 0, 7.5, 0, 0, 0, 7.5, 0, 0, 0, 0, 0, 0, 0, 0, 0, 7.5, 0, 0, 0, 0, 7.5, 0, 0, 0, 7.5, 0, 7.5, 0, 0, 7.5, 0, 0, 0, 7.5, 0, 0, 0, 7.5, 7.5, 0, 0, 0, 0, 0, 0, 0, 7.5, 7.5, 0, 0, 0, 7.5, 0, 0, 0, 0, 0, 0, 0, 0, 0, 0, 0, 0, 0, 0, 0, 0, 0, 0, 7.5, 0, 0, 0, 0, 0, 0, 0, 7.5, 7.5, 0, 0, 7.5, 0, 0, 0, 0, 0, 0, 0, 7.5, 7.5, 7.5, 0, 0, 0, 0, 0, 0, 0, 0, 7.5, 0, 0, 0, 7.5, 0, 0, 0, 0, 0, 0, 0, 0, 0, 7.5, 0, 0, 0, 0, 7.5, 0, 0, 0, 7.5, 0, 7.5, 0, 0, 7.5, 0, 0, 0, 7.5, 0, 0, 0, 7.5, 7.5, 0, 0, 0, 0, 0, 0, 0, 7.5, 7.5, 0, 0, 0, 7.5, 0, 0, 0, 0, 0, 0, 0, 0, 0, 0, 0, 0, 0, 0, 0, 0, 0, 0, 7.5, 0, 0, 0, 0, 0, 0, 0, 7.5, 7.5, 0, 0, 7.5, 0, 0, 0, 0, 0, 0, 0, 7.5, 7.5, 7.5, 0, 0, 0, 0, 0, 0, 0, 0, 7.5, 0, 0, 0, 7.5, 0, 0, 0, 0, 0, 0, 0, 0, 0, 7.5, 0, 0, 0, 0, 7.5, 0, 0, 0, 7.5, 0, 7.5, 0, 0, 7.5, 0, 0, 0, 7.5, 0, 0, 0, 7.5, 7.5, 0, 0, 0, 0, 0, 0, 0, 7.5, 7.5, 0, 0, 0, 7.5, 0, 0, 0, 0, 0, 0, 0, 0, 0, 0, 0, 0, 0, 0, 0, 0, 0, 0, 7.5, 0, 0, 0, 0, 0, 0, 0, 7.5, 7.5, 0, 0, 7.5, 0, 0, 0, 0, 0, 0, 0, 7.5, 7.5, 7.5, 0, 0, 0, 0, 0, 0, 0, 0, 7.5, 0, 0, 0, 7.5, 0, 0, 0, 0, 0, 0, 0, 0, 0, 7.5, 0, 0, 0, 0, 7.5, 0, 0, 0, 7.5, 0, 7.5, 0, 0, 7.5, 0, 0, 0, 7.5, 0, 0, 0, 7.5, 7.5, 0, 0, 0, 0, 0, 0, 0, 7.5, 7.5, 0, 0, 0, 7.5, 0, 0, 0, 0, 0, 0, 0, 0, 0, 0, 0, 0, 0, 0, 0, 0, 0, 0, 7.5, 0, 0, 0, 0, 0, 0, 0, 7.5, 7.5, 0, 0, 7.5, 0, 0, 0, 0, 0, 0, 0, 7.5, 7.5, 7.5, 0, 0, 0, 0, 0, 0, 0, 0, 7.5, 0, 0, 0, 7.5, 0, 0, 0, 0, 0, 0, 0, 0, 0, 7.5, 0, 0, 0, 0, 7.5, 0, 0, 0, 7.5, 0, 7.5, 0, 0, 7.5, 0, 7.5, 7.5, 0.0, 7.5, 7.5, 7.5, 0.0, 0.0, 7.5, 7.5, 7.5, 7.5, 7.5, 7.5, 7.5, 0.0, 0.0, 7.5, 7.5, 7.5, 0.0, 7.5, 7.5, 7.5, 7.5, 7.5, 7.5, 7.5, 7.5, 7.5, 7.5, 7.5, 7.5, 7.5, 7.5, 7.5, 7.5, 7.5, 7.5, 0.0, 7.5, 7.5, 7.5, 7.5, 7.5, 7.5, 7.5, 0.0, 0.0, 7.5, 7.5, 0.0, 7.5, 7.5, 7.5, 7.5, 7.5, 7.5, 7.5, 0.0, 0.0, 0.0, 7.5, 7.5, 7.5, 7.5, 7.5, 7.5, 7.5, 7.5, 0.0, 7.5, 7.5, 7.5, 0.0, 7.5, 7.5, 7.5, 7.5, 7.5, 7.5, 7.5, 7.5, 7.5, 0.0, 7.5, 7.5, 7.5, 7.5, 0.0, 7.5, 7.5, 7.5, 0.0, 7.5, 0.0, 7.5, 7.5, 0.0, 7.5, 0, 0, 7.5, 0, 0, 0, 7.5, 7.5, 0, 0, 0, 0, 0, 0, 0, 7.5, 7.5, 0, 0, 0, 7.5, 0, 0, 0, 0, 0, 0, 0, 0, 0, 0, 0, 0, 0, 0, 0, 0, 0, 0, 7.5, 0, 0, 0, 0, 0, 0, 0, 7.5, 7.5, 0, 0, 7.5, 0, 0, 0, 0, 0, 0, 0, 7.5, 7.5, 7.5, 0, 0, 0, 0, 0, 0, 0, 0, 7.5, 0, 0, 0, 7.5, 0, 0, 0, 0, 0, 0, 0, 0, 0, 7.5, 0, 0, 0, 0, 7.5, 0, 0, 0, 7.5, 0, 7.5, 0, 0, 7.5, 0, 0, 0, 7.5, 0, 0, 0, 7.5, 7.5, 0, 0, 0, 0, 0, 0, 0, 7.5, 7.5, 0, 0, 0, 7.5, 0, 0, 0, 0, 0, 0, 0, 0, 0, 0, 0, 0, 0, 0, 0, 0, 0, 0, 7.5, 0, 0, 0, 0, 0, 0, 0, 7.5, 7.5, 0, 0, 7.5, 0, 0, 0, 0, 0, 0, 0, 7.5, 7.5, 7.5, 0, 0, 0, 0, 0, 0, 0, 0, 7.5, 0, 0, 0, 7.5, 0, 0, 0, 0, 0, 0, 0, 0, 0, 7.5, 0, 0, 0, 0, 7.5, 0, 0, 0, 7.5, 0, 7.5, 0, 0, 7.5, 0, 0, 0, 7.5, 0, 0, 0, 7.5, 7.5, 0, 0, 0, 0, 0, 0, 0, 7.5, 7.5, 0, 0, 0, 7.5, 0, 0, 0, 0, 0, 0, 0, 0, 0, 0, 0, 0, 0, 0, 0, 0, 0, 0, 7.5, 0, 0, 0, 0, 0, 0, 0, 7.5, 7.5, 0, 0, 7.5, 0, 0, 0, 0, 0, 0, 0, 7.5, 7.5, 7.5, 0, 0, 0, 0, 0, 0, 0, 0, 7.5, 0, 0, 0, 7.5, 0, 0, 0, 0, 0, 0, 0, 0, 0, 7.5, 0, 0, 0, 0, 7.5, 0, 0, 0, 7.5, 0, 7.5, 0, 0, 7.5, 0, 0, 0, 7.5, 0, 0, 0, 7.5, 7.5, 0, 0, 0, 0, 0, 0, 0, 7.5, 7.5, 0, 0, 0, 7.5, 0, 0, 0, 0, 0, 0, 0, 0, 0, 0, 0, 0, 0, 0, 0, 0, 0, 0, 7.5, 0, 0, 0, 0, 0, 0, 0, 7.5, 7.5, 0, 0, 7.5, 0, 0, 0, 0, 0, 0, 0, 7.5, 7.5, 7.5, 0, 0, 0, 0, 0, 0, 0, 0, 7.5, 0, 0, 0, 7.5, 0, 0, 0, 0, 0, 0, 0, 0, 0, 7.5, 0, 0, 0, 0, 7.5, 0, 0, 0, 7.5, 0, 7.5, 0, 0, 7.5, 0, 7.5, 7.5, 0.0, 7.5, 7.5, 7.5, 0.0, 0.0, 7.5, 7.5, 7.5, 7.5, 7.5, 7.5, 7.5, 0.0, 0.0, 7.5, 7.5, 7.5, 0.0, 7.5, 7.5, 7.5, 7.5, 7.5, 7.5, 7.5, 7.5, 7.5, 7.5, 7.5, 7.5, 7.5, 7.5, 7.5, 7.5, 7.5, 7.5, 0.0, 7.5, 7.5, 7.5, 7.5, 7.5, 7.5, 7.5, 0.0, 0.0, 7.5, 7.5, 0.0, 7.5, 7.5, 7.5, 7.5, 7.5, 7.5, 7.5, 0.0, 0.0, 0.0, 7.5, 7.5, 7.5, 7.5, 7.5, 7.5, 7.5, 7.5, 0.0, 7.5, 7.5, 7.5, 0.0, 7.5, 7.5, 7.5, 7.5, 7.5, 7.5, 7.5, 7.5, 7.5, 0.0, 7.5, 7.5, 7.5, 7.5, 0.0, 7.5, 7.5, 7.5, 0.0, 7.5, 0.0, 7.5, 7.5, 0.0, 7.5, 0, 0, 7.5, 0, 0, 0, 7.5, 7.5, 0, 0, 0, 0, 0, 0, 0, 7.5, 7.5, 0, 0, 0, 7.5, 0, 0, 0, 0, 0, 0, 0, 0, 0, 0, 0, 0, 0, 0, 0, 0, 0, 0, 7.5, 0, 0, 0, 0, 0, 0, 0, 7.5, 7.5, 0, 0, 7.5, 0, 0, 0, 0, 0, 0, 0, 7.5, 7.5, 7.5, 0, 0, 0, 0, 0, 0, 0, 0, 7.5, 0, 0, 0, 7.5, 0, 0, 0, 0, 0, 0, 0, 0, 0, 7.5, 0, 0, 0, 0, 7.5, 0, 0, 0, 7.5, 0, 7.5, 0, 0, 7.5, 0, 0, 0, 7.5, 0, 0, 0, 7.5, 7.5, 0, 0, 0, 0, 0, 0, 0, 7.5, 7.5, 0, 0, 0, 7.5, 0, 0, 0, 0, 0, 0, 0, 0, 0, 0, 0, 0, 0, 0, 0, 0, 0, 0, 7.5, 0, 0, 0, 0, 0, 0, 0, 7.5, 7.5, 0, 0, 7.5, 0, 0, 0, 0, 0, 0, 0, 7.5, 7.5, 7.5, 0, 0, 0, 0, 0, 0, 0, 0, 7.5, 0, 0, 0, 7.5, 0, 0, 0, 0, 0, 0, 0, 0, 0, 7.5, 0, 0, 0, 0, 7.5, 0, 0, 0, 7.5, 0, 7.5, 0, 0, 7.5, 0, 0, 0, 7.5, 0, 0, 0, 7.5, 7.5, 0, 0, 0, 0, 0, 0, 0, 7.5, 7.5, 0, 0, 0, 7.5, 0, 0, 0, 0, 0, 0, 0, 0, 0, 0, 0, 0, 0, 0, 0, 0, 0, 0, 7.5, 0, 0, 0, 0, 0, 0, 0, 7.5, 7.5, 0, 0, 7.5, 0, 0, 0, 0, 0, 0, 0, 7.5, 7.5, 7.5, 0, 0, 0, 0, 0, 0, 0, 0, 7.5, 0, 0, 0, 7.5, 0, 0, 0, 0, 0, 0, 0, 0, 0, 7.5, 0, 0, 0, 0, 7.5, 0, 0, 0, 7.5, 0, 7.5, 0, 0, 7.5, 0, 0, 0, 7.5, 0, 0, 0, 7.5, 7.5, 0, 0, 0, 0, 0, 0, 0, 7.5, 7.5, 0, 0, 0, 7.5, 0, 0, 0, 0, 0, 0, 0, 0, 0, 0, 0, 0, 0, 0, 0, 0, 0, 0, 7.5, 0, 0, 0, 0, 0, 0, 0, 7.5, 7.5, 0, 0, 7.5, 0, 0, 0, 0, 0, 0, 0, 7.5, 7.5, 7.5, 0, 0, 0, 0, 0, 0, 0, 0, 7.5, 0, 0, 0, 7.5, 0, 0, 0, 0, 0, 0, 0, 0, 0, 7.5, 0, 0, 0, 0, 7.5, 0, 0, 0, 7.5, 0, 7.5, 0, 0, 7.5, 0, 0, 0, 7.5, 0, 0, 0, 7.5, 7.5, 0, 0, 0, 0, 0, 0, 0, 7.5, 7.5, 0, 0, 0, 7.5, 0, 0, 0, 0, 0, 0, 0, 0, 0, 0, 0, 0, 0, 0, 0, 0, 0, 0, 7.5, 0, 0, 0, 0, 0, 0, 0, 7.5, 7.5, 0, 0, 7.5, 0, 0, 0, 0, 0, 0, 0, 7.5, 7.5, 7.5, 0, 0, 0, 0, 0, 0, 0, 0, 7.5, 0, 0, 0, 7.5, 0, 0, 0, 0, 0, 0, 0, 0, 0, 7.5, 0, 0, 0, 0, 7.5, 0, 0, 0, 7.5, 0, 7.5, 0, 0, 7.5, 0, 0, 0, 7.5, 0, 0, 0, 7.5, 7.5, 0, 0, 0, 0, 0, 0, 0, 7.5, 7.5, 0, 0, 0, 7.5, 0, 0, 0, 0, 0, 0, 0, 0, 0, 0, 0, 0, 0, 0, 0, 0, 0, 0, 7.5, 0, 0, 0, 0, 0, 0, 0, 7.5, 7.5, 0, 0, 7.5, 0, 0, 0, 0, 0, 0, 0, 7.5, 7.5, 7.5, 0, 0, 0, 0, 0, 0, 0, 0, 7.5, 0, 0, 0, 7.5, 0, 0, 0, 0, 0, 0, 0, 0, 0, 7.5, 0, 0, 0, 0, 7.5, 0, 0, 0, 7.5, 0, 7.5, 0, 0, 7.5, 0, 0, 0, 7.5, 0, 0, 0, 7.5, 7.5, 0, 0, 0, 0, 0, 0, 0, 7.5, 7.5, 0, 0, 0, 7.5, 0, 0, 0, 0, 0, 0, 0, 0, 0, 0, 0, 0, 0, 0, 0, 0, 0, 0, 7.5, 0, 0, 0, 0, 0, 0, 0, 7.5, 7.5, 0, 0, 7.5, 0, 0, 0, 0, 0, 0, 0, 7.5, 7.5, 7.5, 0, 0, 0, 0, 0, 0, 0, 0, 7.5, 0, 0, 0, 7.5, 0, 0, 0, 0, 0, 0, 0, 0, 0, 7.5, 0, 0, 0, 0, 7.5, 0, 0, 0, 7.5, 0, 7.5, 0, 0, 7.5, 0, 0, 0, 7.5, 0, 0, 0, 7.5, 7.5, 0, 0, 0, 0, 0, 0, 0, 7.5, 7.5, 0, 0, 0, 7.5, 0, 0, 0, 0, 0, 0, 0, 0, 0, 0, 0, 0, 0, 0, 0, 0, 0, 0, 7.5, 0, 0, 0, 0, 0, 0, 0, 7.5, 7.5, 0, 0, 7.5, 0, 0, 0, 0, 0, 0, 0, 7.5, 7.5, 7.5, 0, 0, 0, 0, 0, 0, 0, 0, 7.5, 0, 0, 0, 7.5, 0, 0, 0, 0, 0, 0, 0, 0, 0, 7.5, 0, 0, 0, 0, 7.5, 0, 0, 0, 7.5, 0, 7.5, 0, 0, 7.5, 0, 0, 0, 7.5, 0, 0, 0, 7.5, 7.5, 0, 0, 0, 0, 0, 0, 0, 7.5, 7.5, 0, 0, 0, 7.5, 0, 0, 0, 0, 0, 0, 0, 0, 0, 0, 0, 0, 0, 0, 0, 0, 0, 0, 7.5, 0, 0, 0, 0, 0, 0, 0, 7.5, 7.5, 0, 0, 7.5, 0, 0, 0, 0, 0, 0, 0, 7.5, 7.5, 7.5, 0, 0, 0, 0, 0, 0, 0, 0, 7.5, 0, 0, 0, 7.5, 0, 0, 0, 0, 0, 0, 0, 0, 0, 7.5, 0, 0, 0, 0, 7.5, 0, 0, 0, 7.5, 0, 7.5, 0, 0, 7.5, 0, 0, 0, 7.5, 0, 0, 0, 7.5, 7.5, 0, 0, 0, 0, 0, 0, 0, 7.5, 7.5, 0, 0, 0, 7.5, 0, 0, 0, 0, 0, 0, 0, 0, 0, 0, 0, 0, 0, 0, 0, 0, 0, 0, 7.5, 0, 0, 0, 0, 0, 0, 0, 7.5, 7.5, 0, 0, 7.5, 0, 0, 0, 0, 0, 0, 0, 7.5, 7.5, 7.5, 0, 0, 0, 0, 0, 0, 0, 0, 7.5, 0, 0, 0, 7.5, 0, 0, 0, 0, 0, 0, 0, 0, 0, 7.5, 0, 0, 0, 0, 7.5, 0, 0, 0, 7.5, 0, 7.5, 0, 0, 7.5, 0, 0, 0, 7.5, 0, 0, 0, 7.5, 7.5, 0, 0, 0, 0, 0, 0, 0, 7.5, 7.5, 0, 0, 0, 7.5, 0, 0, 0, 0, 0, 0, 0, 0, 0, 0, 0, 0, 0, 0, 0, 0, 0, 0, 7.5, 0, 0, 0, 0, 0, 0, 0, 7.5, 7.5, 0, 0, 7.5, 0, 0, 0, 0, 0, 0, 0, 7.5, 7.5, 7.5, 0, 0, 0, 0, 0, 0, 0, 0, 7.5, 0, 0, 0, 7.5, 0, 0, 0, 0, 0, 0, 0, 0, 0, 7.5, 0, 0, 0, 0, 7.5, 0, 0, 0, 7.5, 0, 7.5, 0, 0, 7.5, 0, 0, 0, 7.5, 0, 0, 0, 7.5, 7.5, 0, 0, 0, 0, 0, 0, 0, 7.5, 7.5, 0, 0, 0, 7.5, 0, 0, 0, 0, 0, 0, 0, 0, 0, 0, 0, 0, 0, 0, 0, 0, 0, 0, 7.5, 0, 0, 0, 0, 0, 0, 0, 7.5, 7.5, 0, 0, 7.5, 0, 0, 0, 0, 0, 0, 0, 7.5, 7.5, 7.5, 0, 0, 0, 0, 0, 0, 0, 0, 7.5, 0, 0, 0, 7.5, 0, 0, 0, 0, 0, 0, 0, 0, 0, 7.5, 0, 0, 0, 0, 7.5, 0, 0, 0, 7.5, 0, 7.5, 0, 0, 7.5, 0, 0, 0, 7.5, 0, 0, 0, 7.5, 7.5, 0, 0, 0, 0, 0, 0, 0, 7.5, 7.5, 0, 0, 0, 7.5, 0, 0, 0, 0, 0, 0, 0, 0, 0, 0, 0, 0, 0, 0, 0, 0, 0, 0, 7.5, 0, 0, 0, 0, 0, 0, 0, 7.5, 7.5, 0, 0, 7.5, 0, 0, 0, 0, 0, 0, 0, 7.5, 7.5, 7.5, 0, 0, 0, 0, 0, 0, 0, 0, 7.5, 0, 0, 0, 7.5, 0, 0, 0, 0, 0, 0, 0, 0, 0, 7.5, 0, 0, 0, 0, 7.5, 0, 0, 0, 7.5, 0, 7.5, 0, 0, 7.5, 0, 0, 0, 7.5, 0, 0, 0, 7.5, 7.5, 0, 0, 0, 0, 0, 0, 0, 7.5, 7.5, 0, 0, 0, 7.5, 0, 0, 0, 0, 0, 0, 0, 0, 0, 0, 0, 0, 0, 0, 0, 0, 0, 0, 7.5, 0, 0, 0, 0, 0, 0, 0, 7.5, 7.5, 0, 0, 7.5, 0, 0, 0, 0, 0, 0, 0, 7.5, 7.5, 7.5, 0, 0, 0, 0, 0, 0, 0, 0, 7.5, 0, 0, 0, 7.5, 0, 0, 0, 0, 0, 0, 0, 0, 0, 7.5, 0, 0, 0, 0, 7.5, 0, 0, 0, 7.5, 0, 7.5, 0, 0, 7.5, 0, 7.5, 7.5, 0.0, 7.5, 7.5, 7.5, 0.0, 0.0, 7.5, 7.5, 7.5, 7.5, 7.5, 7.5, 7.5, 0.0, 0.0, 7.5, 7.5, 7.5, 0.0, 7.5, 7.5, 7.5, 7.5, 7.5, 7.5, 7.5, 7.5, 7.5, 7.5, 7.5, 7.5, 7.5, 7.5, 7.5, 7.5, 7.5, 7.5, 0.0, 7.5, 7.5, 7.5, 7.5, 7.5, 7.5, 7.5, 0.0, 0.0, 7.5, 7.5, 0.0, 7.5, 7.5, 7.5, 7.5, 7.5, 7.5, 7.5, 0.0, 0.0, 0.0, 7.5, 7.5, 7.5, 7.5, 7.5, 7.5, 7.5, 7.5, 0.0, 7.5, 7.5, 7.5, 0.0, 7.5, 7.5, 7.5, 7.5, 7.5, 7.5, 7.5, 7.5, 7.5, 0.0, 7.5, 7.5, 7.5, 7.5, 0.0, 7.5, 7.5, 7.5, 0.0, 7.5, 0.0, 7.5, 7.5, 0.0, 7.5, 7.5, 7.5, 0.0, 7.5, 7.5, 7.5, 0.0, 0.0, 7.5, 7.5, 7.5, 7.5, 7.5, 7.5, 7.5, 0.0, 0.0, 7.5, 7.5, 7.5, 0.0, 7.5, 7.5, 7.5, 7.5, 7.5, 7.5, 7.5, 7.5, 7.5, 7.5, 7.5, 7.5, 7.5, 7.5, 7.5, 7.5, 7.5, 7.5, 0.0, 7.5, 7.5, 7.5, 7.5, 7.5, 7.5, 7.5, 0.0, 0.0, 7.5, 7.5, 0.0, 7.5, 7.5, 7.5, 7.5, 7.5, 7.5, 7.5, 0.0, 0.0, 0.0, 7.5, 7.5, 7.5, 7.5, 7.5, 7.5, 7.5, 7.5, 0.0, 7.5, 7.5, 7.5, 0.0, 7.5, 7.5, 7.5, 7.5, 7.5, 7.5, 7.5, 7.5, 7.5, 0.0, 7.5, 7.5, 7.5, 7.5, 0.0, 7.5, 7.5, 7.5, 0.0, 7.5, 0.0, 7.5, 7.5, 0.0, 7.5, 7.5, 7.5, 0.0, 7.5, 7.5, 7.5, 0.0, 0.0, 7.5, 7.5, 7.5, 7.5, 7.5, 7.5, 7.5, 0.0, 0.0, 7.5, 7.5, 7.5, 0.0, 7.5, 7.5, 7.5, 7.5, 7.5, 7.5, 7.5, 7.5, 7.5, 7.5, 7.5, 7.5, 7.5, 7.5, 7.5, 7.5, 7.5, 7.5, 0.0, 7.5, 7.5, 7.5, 7.5, 7.5, 7.5, 7.5, 0.0, 0.0, 7.5, 7.5, 0.0, 7.5, 7.5, 7.5, 7.5, 7.5, 7.5, 7.5, 0.0, 0.0, 0.0, 7.5, 7.5, 7.5, 7.5, 7.5, 7.5, 7.5, 7.5, 0.0, 7.5, 7.5, 7.5, 0.0, 7.5, 7.5, 7.5, 7.5, 7.5, 7.5, 7.5, 7.5, 7.5, 0.0, 7.5, 7.5, 7.5, 7.5, 0.0, 7.5, 7.5, 7.5, 0.0, 7.5, 0.0, 7.5, 7.5, 0.0, 7.5, 7.5, 7.5, 0.0, 7.5, 7.5, 7.5, 0.0, 0.0, 7.5, 7.5, 7.5, 7.5, 7.5, 7.5, 7.5, 0.0, 0.0, 7.5, 7.5, 7.5, 0.0, 7.5, 7.5, 7.5, 7.5, 7.5, 7.5, 7.5, 7.5, 7.5, 7.5, 7.5, 7.5, 7.5, 7.5, 7.5, 7.5, 7.5, 7.5, 0.0, 7.5, 7.5, 7.5, 7.5, 7.5, 7.5, 7.5, 0.0, 0.0, 7.5, 7.5, 0.0, 7.5, 7.5, 7.5, 7.5, 7.5, 7.5, 7.5, 0.0, 0.0, 0.0, 7.5, 7.5, 7.5, 7.5, 7.5, 7.5, 7.5, 7.5, 0.0, 7.5, 7.5, 7.5, 0.0, 7.5, 7.5, 7.5, 7.5, 7.5, 7.5, 7.5, 7.5, 7.5, 0.0, 7.5, 7.5, 7.5, 7.5, 0.0, 7.5, 7.5, 7.5, 0.0, 7.5, 0.0, 7.5, 7.5, 0.0, 7.5, 0, 0, 7.5, 0, 0, 0, 7.5, 7.5, 0, 0, 0, 0, 0, 0, 0, 7.5, 7.5, 0, 0, 0, 7.5, 0, 0, 0, 0, 0, 0, 0, 0, 0, 0, 0, 0, 0, 0, 0, 0, 0, 0, 7.5, 0, 0, 0, 0, 0, 0, 0, 7.5, 7.5, 0, 0, 7.5, 0, 0, 0, 0, 0, 0, 0, 7.5, 7.5, 7.5, 0, 0, 0, 0, 0, 0, 0, 0, 7.5, 0, 0, 0, 7.5, 0, 0, 0, 0, 0, 0, 0, 0, 0, 7.5, 0, 0, 0, 0, 7.5, 0, 0, 0, 7.5, 0, 7.5, 0, 0, 7.5, 0, 0, 0, 7.5, 0, 0, 0, 7.5, 7.5, 0, 0, 0, 0, 0, 0, 0, 7.5, 7.5, 0, 0, 0, 7.5, 0, 0, 0, 0, 0, 0, 0, 0, 0, 0, 0, 0, 0, 0, 0, 0, 0, 0, 7.5, 0, 0, 0, 0, 0, 0, 0, 7.5, 7.5, 0, 0, 7.5, 0, 0, 0, 0, 0, 0, 0, 7.5, 7.5, 7.5, 0, 0, 0, 0, 0, 0, 0, 0, 7.5, 0, 0, 0, 7.5, 0, 0, 0, 0, 0, 0, 0, 0, 0, 7.5, 0, 0, 0, 0, 7.5, 0, 0, 0, 7.5, 0, 7.5, 0, 0, 7.5, 0, 0, 0, 7.5, 0, 0, 0, 7.5, 7.5, 0, 0, 0, 0, 0, 0, 0, 7.5, 7.5, 0, 0, 0, 7.5, 0, 0, 0, 0, 0, 0, 0, 0, 0, 0, 0, 0, 0, 0, 0, 0, 0, 0, 7.5, 0, 0, 0, 0, 0, 0, 0, 7.5, 7.5, 0, 0, 7.5, 0, 0, 0, 0, 0, 0, 0, 7.5, 7.5, 7.5, 0, 0, 0, 0, 0, 0, 0, 0, 7.5, 0, 0, 0, 7.5, 0, 0, 0, 0, 0, 0, 0, 0, 0, 7.5, 0, 0, 0, 0, 7.5, 0, 0, 0, 7.5, 0, 7.5, 0, 0, 7.5, 0, 0, 0, 7.5, 0, 0, 0, 7.5, 7.5, 0, 0, 0, 0, 0, 0, 0, 7.5, 7.5, 0, 0, 0, 7.5, 0, 0, 0, 0, 0, 0, 0, 0, 0, 0, 0, 0, 0, 0, 0, 0, 0, 0, 7.5, 0, 0, 0, 0, 0, 0, 0, 7.5, 7.5, 0, 0, 7.5, 0, 0, 0, 0, 0, 0, 0, 7.5, 7.5, 7.5, 0, 0, 0, 0, 0, 0, 0, 0, 7.5, 0, 0, 0, 7.5, 0, 0, 0, 0, 0, 0, 0, 0, 0, 7.5, 0, 0, 0, 0, 7.5, 0, 0, 0, 7.5, 0, 7.5, 0, 0, 7.5, 0, 0, 0, 7.5, 0, 0, 0, 7.5, 7.5, 0, 0, 0, 0, 0, 0, 0, 7.5, 7.5, 0, 0, 0, 7.5, 0, 0, 0, 0, 0, 0, 0, 0, 0, 0, 0, 0, 0, 0, 0, 0, 0, 0, 7.5, 0, 0, 0, 0, 0, 0, 0, 7.5, 7.5, 0, 0, 7.5, 0, 0, 0, 0, 0, 0, 0, 7.5, 7.5, 7.5, 0, 0, 0, 0, 0, 0, 0, 0, 7.5, 0, 0, 0, 7.5, 0, 0, 0, 0, 0, 0, 0, 0, 0, 7.5, 0, 0, 0, 0, 7.5, 0, 0, 0, 7.5, 0, 7.5, 0, 0, 7.5, 0, 0, 0, 7.5, 0, 0, 0, 7.5, 7.5, 0, 0, 0, 0, 0, 0, 0, 7.5, 7.5, 0, 0, 0, 7.5, 0, 0, 0, 0, 0, 0, 0, 0, 0, 0, 0, 0, 0, 0, 0, 0, 0, 0, 7.5, 0, 0, 0, 0, 0, 0, 0, 7.5, 7.5, 0, 0, 7.5, 0, 0, 0, 0, 0, 0, 0, 7.5, 7.5, 7.5, 0, 0, 0, 0, 0, 0, 0, 0, 7.5, 0, 0, 0, 7.5, 0, 0, 0, 0, 0, 0, 0, 0, 0, 7.5, 0, 0, 0, 0, 7.5, 0, 0, 0, 7.5, 0, 7.5, 0, 0, 7.5, 0, 0, 0, 7.5, 0, 0, 0, 7.5, 7.5, 0, 0, 0, 0, 0, 0, 0, 7.5, 7.5, 0, 0, 0, 7.5, 0, 0, 0, 0, 0, 0, 0, 0, 0, 0, 0, 0, 0, 0, 0, 0, 0, 0, 7.5, 0, 0, 0, 0, 0, 0, 0, 7.5, 7.5, 0, 0, 7.5, 0, 0, 0, 0, 0, 0, 0, 7.5, 7.5, 7.5, 0, 0, 0, 0, 0, 0, 0, 0, 7.5, 0, 0, 0, 7.5, 0, 0, 0, 0, 0, 0, 0, 0, 0, 7.5, 0, 0, 0, 0, 7.5, 0, 0, 0, 7.5, 0, 7.5, 0, 0, 7.5, 0, 0, 0, 7.5, 0, 0, 0, 7.5, 7.5, 0, 0, 0, 0, 0, 0, 0, 7.5, 7.5, 0, 0, 0, 7.5, 0, 0, 0, 0, 0, 0, 0, 0, 0, 0, 0, 0, 0, 0, 0, 0, 0, 0, 7.5, 0, 0, 0, 0, 0, 0, 0, 7.5, 7.5, 0, 0, 7.5, 0, 0, 0, 0, 0, 0, 0, 7.5, 7.5, 7.5, 0, 0, 0, 0, 0, 0, 0, 0, 7.5, 0, 0, 0, 7.5, 0, 0, 0, 0, 0, 0, 0, 0, 0, 7.5, 0, 0, 0, 0, 7.5, 0, 0, 0, 7.5, 0, 7.5, 0, 0, 7.5, 0, 7.5, 7.5, 0.0, 7.5, 7.5, 7.5, 0.0, 0.0, 7.5, 7.5, 7.5, 7.5, 7.5, 7.5, 7.5, 0.0, 0.0, 7.5, 7.5, 7.5, 0.0, 7.5, 7.5, 7.5, 7.5, 7.5, 7.5, 7.5, 7.5, 7.5, 7.5, 7.5, 7.5, 7.5, 7.5, 7.5, 7.5, 7.5, 7.5, 0.0, 7.5, 7.5, 7.5, 7.5, 7.5, 7.5, 7.5, 0.0, 0.0, 7.5, 7.5, 0.0, 7.5, 7.5, 7.5, 7.5, 7.5, 7.5, 7.5, 0.0, 0.0, 0.0, 7.5, 7.5, 7.5, 7.5, 7.5, 7.5, 7.5, 7.5, 0.0, 7.5, 7.5, 7.5, 0.0, 7.5, 7.5, 7.5, 7.5, 7.5, 7.5, 7.5, 7.5, 7.5, 0.0, 7.5, 7.5, 7.5, 7.5, 0.0, 7.5, 7.5, 7.5, 0.0, 7.5, 0.0, 7.5, 7.5, 0.0, 7.5, 0, 0, 7.5, 0, 0, 0, 7.5, 7.5, 0, 0, 0, 0, 0, 0, 0, 7.5, 7.5, 0, 0, 0, 7.5, 0, 0, 0, 0, 0, 0, 0, 0, 0, 0, 0, 0, 0, 0, 0, 0, 0, 0, 7.5, 0, 0, 0, 0, 0, 0, 0, 7.5, 7.5, 0, 0, 7.5, 0, 0, 0, 0, 0, 0, 0, 7.5, 7.5, 7.5, 0, 0, 0, 0, 0, 0, 0, 0, 7.5, 0, 0, 0, 7.5, 0, 0, 0, 0, 0, 0, 0, 0, 0, 7.5, 0, 0, 0, 0, 7.5, 0, 0, 0, 7.5, 0, 7.5, 0, 0, 7.5, 0, 0, 0, 7.5, 0, 0, 0, 7.5, 7.5, 0, 0, 0, 0, 0, 0, 0, 7.5, 7.5, 0, 0, 0, 7.5, 0, 0, 0, 0, 0, 0, 0, 0, 0, 0, 0, 0, 0, 0, 0, 0, 0, 0, 7.5, 0, 0, 0, 0, 0, 0, 0, 7.5, 7.5, 0, 0, 7.5, 0, 0, 0, 0, 0, 0, 0, 7.5, 7.5, 7.5, 0, 0, 0, 0, 0, 0, 0, 0, 7.5, 0, 0, 0, 7.5, 0, 0, 0, 0, 0, 0, 0, 0, 0, 7.5, 0, 0, 0, 0, 7.5, 0, 0, 0, 7.5, 0, 7.5, 0, 0, 7.5, 0, 0, 0, 7.5, 0, 0, 0, 7.5, 7.5, 0, 0, 0, 0, 0, 0, 0, 7.5, 7.5, 0, 0, 0, 7.5, 0, 0, 0, 0, 0, 0, 0, 0, 0, 0, 0, 0, 0, 0, 0, 0, 0, 0, 7.5, 0, 0, 0, 0, 0, 0, 0, 7.5, 7.5, 0, 0, 7.5, 0, 0, 0, 0, 0, 0, 0, 7.5, 7.5, 7.5, 0, 0, 0, 0, 0, 0, 0, 0, 7.5, 0, 0, 0, 7.5, 0, 0, 0, 0, 0, 0, 0, 0, 0, 7.5, 0, 0, 0, 0, 7.5, 0, 0, 0, 7.5, 0, 7.5, 0, 0, 7.5, 0, 7.5, 7.5, 0.0, 7.5, 7.5, 7.5, 0.0, 0.0, 7.5, 7.5, 7.5, 7.5, 7.5, 7.5, 7.5, 0.0, 0.0, 7.5, 7.5, 7.5, 0.0, 7.5, 7.5, 7.5, 7.5, 7.5, 7.5, 7.5, 7.5, 7.5, 7.5, 7.5, 7.5, 7.5, 7.5, 7.5, 7.5, 7.5, 7.5, 0.0, 7.5, 7.5, 7.5, 7.5, 7.5, 7.5, 7.5, 0.0, 0.0, 7.5, 7.5, 0.0, 7.5, 7.5, 7.5, 7.5, 7.5, 7.5, 7.5, 0.0, 0.0, 0.0, 7.5, 7.5, 7.5, 7.5, 7.5, 7.5, 7.5, 7.5, 0.0, 7.5, 7.5, 7.5, 0.0, 7.5, 7.5, 7.5, 7.5, 7.5, 7.5, 7.5, 7.5, 7.5, 0.0, 7.5, 7.5, 7.5, 7.5, 0.0, 7.5, 7.5, 7.5, 0.0, 7.5, 0.0, 7.5, 7.5, 0.0, 7.5, 0, 0, 7.5, 0, 0, 0, 7.5, 7.5, 0, 0, 0, 0, 0, 0, 0, 7.5, 7.5, 0, 0, 0, 7.5, 0, 0, 0, 0, 0, 0, 0, 0, 0, 0, 0, 0, 0, 0, 0, 0, 0, 0, 7.5, 0, 0, 0, 0, 0, 0, 0, 7.5, 7.5, 0, 0, 7.5, 0, 0, 0, 0, 0, 0, 0, 7.5, 7.5, 7.5, 0, 0, 0, 0, 0, 0, 0, 0, 7.5, 0, 0, 0, 7.5, 0, 0, 0, 0, 0, 0, 0, 0, 0, 7.5, 0, 0, 0, 0, 7.5, 0, 0, 0, 7.5, 0, 7.5, 0, 0, 7.5, 0, 7.5, 7.5, 0.0, 7.5, 7.5, 7.5, 0.0, 0.0, 7.5, 7.5, 7.5, 7.5, 7.5, 7.5, 7.5, 0.0, 0.0, 7.5, 7.5, 7.5, 0.0, 7.5, 7.5, 7.5, 7.5, 7.5, 7.5, 7.5, 7.5, 7.5, 7.5, 7.5, 7.5, 7.5, 7.5, 7.5, 7.5, 7.5, 7.5, 0.0, 7.5, 7.5, 7.5, 7.5, 7.5, 7.5, 7.5, 0.0, 0.0, 7.5, 7.5, 0.0, 7.5, 7.5, 7.5, 7.5, 7.5, 7.5, 7.5, 0.0, 0.0, 0.0, 7.5, 7.5, 7.5, 7.5, 7.5, 7.5, 7.5, 7.5, 0.0, 7.5, 7.5, 7.5, 0.0, 7.5, 7.5, 7.5, 7.5, 7.5, 7.5, 7.5, 7.5, 7.5, 0.0, 7.5, 7.5, 7.5, 7.5, 0.0, 7.5, 7.5, 7.5, 0.0, 7.5, 0.0, 7.5, 7.5, 0.0, 7.5, 0, 0, 7.5, 0, 0, 0, 7.5, 7.5, 0, 0, 0, 0, 0, 0, 0, 7.5, 7.5, 0, 0, 0, 7.5, 0, 0, 0, 0, 0, 0, 0, 0, 0, 0, 0, 0, 0, 0, 0, 0, 0, 0, 7.5, 0, 0, 0, 0, 0, 0, 0, 7.5, 7.5, 0, 0, 7.5, 0, 0, 0, 0, 0, 0, 0, 7.5, 7.5, 7.5, 0, 0, 0, 0, 0, 0, 0, 0, 7.5, 0, 0, 0, 7.5, 0, 0, 0, 0, 0, 0, 0, 0, 0, 7.5, 0, 0, 0, 0, 7.5, 0, 0, 0, 7.5, 0, 7.5, 0, 0, 7.5, 0, 0, 0, 7.5, 0, 0, 0, 7.5, 7.5, 0, 0, 0, 0, 0, 0, 0, 7.5, 7.5, 0, 0, 0, 7.5, 0, 0, 0, 0, 0, 0, 0, 0, 0, 0, 0, 0, 0, 0, 0, 0, 0, 0, 7.5, 0, 0, 0, 0, 0, 0, 0, 7.5, 7.5, 0, 0, 7.5, 0, 0, 0, 0, 0, 0, 0, 7.5, 7.5, 7.5, 0, 0, 0, 0, 0, 0, 0, 0, 7.5, 0, 0, 0, 7.5, 0, 0, 0, 0, 0, 0, 0, 0, 0, 7.5, 0, 0, 0, 0, 7.5, 0, 0, 0, 7.5, 0, 7.5, 0, 0, 7.5, 0, 0, 0, 7.5, 0, 0, 0, 7.5, 7.5, 0, 0, 0, 0, 0, 0, 0, 7.5, 7.5, 0, 0, 0, 7.5, 0, 0, 0, 0, 0, 0, 0, 0, 0, 0, 0, 0, 0, 0, 0, 0, 0, 0, 7.5, 0, 0, 0, 0, 0, 0, 0, 7.5, 7.5, 0, 0, 7.5, 0, 0, 0, 0, 0, 0, 0, 7.5, 7.5, 7.5, 0, 0, 0, 0, 0, 0, 0, 0, 7.5, 0, 0, 0, 7.5, 0, 0, 0, 0, 0, 0, 0, 0, 0, 7.5, 0, 0, 0, 0, 7.5, 0, 0, 0, 7.5, 0, 7.5, 0, 0, 7.5, 0, 0, 0, 7.5, 0, 0, 0, 7.5, 7.5, 0, 0, 0, 0, 0, 0, 0, 7.5, 7.5, 0, 0, 0, 7.5, 0, 0, 0, 0, 0, 0, 0, 0, 0, 0, 0, 0, 0, 0, 0, 0, 0, 0, 7.5, 0, 0, 0, 0, 0, 0, 0, 7.5, 7.5, 0, 0, 7.5, 0, 0, 0, 0, 0, 0, 0, 7.5, 7.5, 7.5, 0, 0, 0, 0, 0, 0, 0, 0, 7.5, 0, 0, 0, 7.5, 0, 0, 0, 0, 0, 0, 0, 0, 0, 7.5, 0, 0, 0, 0, 7.5, 0, 0, 0, 7.5, 0, 7.5, 0, 0, 7.5, 0, 0, 0, 7.5, 0, 0, 0, 7.5, 7.5, 0, 0, 0, 0, 0, 0, 0, 7.5, 7.5, 0, 0, 0, 7.5, 0, 0, 0, 0, 0, 0, 0, 0, 0, 0, 0, 0, 0, 0, 0, 0, 0, 0, 7.5, 0, 0, 0, 0, 0, 0, 0, 7.5, 7.5, 0, 0, 7.5, 0, 0, 0, 0, 0, 0, 0, 7.5, 7.5, 7.5, 0, 0, 0, 0, 0, 0, 0, 0, 7.5, 0, 0, 0, 7.5, 0, 0, 0, 0, 0, 0, 0, 0, 0, 7.5, 0, 0, 0, 0, 7.5, 0, 0, 0, 7.5, 0, 7.5, 0, 0, 7.5, 0, 0, 0, 7.5, 0, 0, 0, 7.5, 7.5, 0, 0, 0, 0, 0, 0, 0, 7.5, 7.5, 0, 0, 0, 7.5, 0, 0, 0, 0, 0, 0, 0, 0, 0, 0, 0, 0, 0, 0, 0, 0, 0, 0, 7.5, 0, 0, 0, 0, 0, 0, 0, 7.5, 7.5, 0, 0, 7.5, 0, 0, 0, 0, 0, 0, 0, 7.5, 7.5, 7.5, 0, 0, 0, 0, 0, 0, 0, 0, 7.5, 0, 0, 0, 7.5, 0, 0, 0, 0, 0, 0, 0, 0, 0, 7.5, 0, 0, 0, 0, 7.5, 0, 0, 0, 7.5, 0, 7.5, 0, 0, 7.5, 0, 0, 0, 7.5, 0, 0, 0, 7.5, 7.5, 0, 0, 0, 0, 0, 0, 0, 7.5, 7.5, 0, 0, 0, 7.5, 0, 0, 0, 0, 0, 0, 0, 0, 0, 0, 0, 0, 0, 0, 0, 0, 0, 0, 7.5, 0, 0, 0, 0, 0, 0, 0, 7.5, 7.5, 0, 0, 7.5, 0, 0, 0, 0, 0, 0, 0, 7.5, 7.5, 7.5, 0, 0, 0, 0, 0, 0, 0, 0, 7.5, 0, 0, 0, 7.5, 0, 0, 0, 0, 0, 0, 0, 0, 0, 7.5, 0, 0, 0, 0, 7.5, 0, 0, 0, 7.5, 0, 7.5, 0, 0, 7.5, 0, 0, 0, 7.5, 0, 0, 0, 7.5, 7.5, 0, 0, 0, 0, 0, 0, 0, 7.5, 7.5, 0, 0, 0, 7.5, 0, 0, 0, 0, 0, 0, 0, 0, 0, 0, 0, 0, 0, 0, 0, 0, 0, 0, 7.5, 0, 0, 0, 0, 0, 0, 0, 7.5, 7.5, 0, 0, 7.5, 0, 0, 0, 0, 0, 0, 0, 7.5, 7.5, 7.5, 0, 0, 0, 0, 0, 0, 0, 0, 7.5, 0, 0, 0, 7.5, 0, 0, 0, 0, 0, 0, 0, 0, 0, 7.5, 0, 0, 0, 0, 7.5, 0, 0, 0, 7.5, 0, 7.5, 0, 0, 7.5, 0, 0, 0, 7.5, 0, 0, 0, 7.5, 7.5, 0, 0, 0, 0, 0, 0, 0, 7.5, 7.5, 0, 0, 0, 7.5, 0, 0, 0, 0, 0, 0, 0, 0, 0, 0, 0, 0, 0, 0, 0, 0, 0, 0, 7.5, 0, 0, 0, 0, 0, 0, 0, 7.5, 7.5, 0, 0, 7.5, 0, 0, 0, 0, 0, 0, 0, 7.5, 7.5, 7.5, 0, 0, 0, 0, 0, 0, 0, 0, 7.5, 0, 0, 0, 7.5, 0, 0, 0, 0, 0, 0, 0, 0, 0, 7.5, 0, 0, 0, 0, 7.5, 0, 0, 0, 7.5, 0, 7.5, 0, 0, 7.5, 0, 7.5, 7.5, 0.0, 7.5, 7.5, 7.5, 0.0, 0.0, 7.5, 7.5, 7.5, 7.5, 7.5, 7.5, 7.5, 0.0, 0.0, 7.5, 7.5, 7.5, 0.0, 7.5, 7.5, 7.5, 7.5, 7.5, 7.5, 7.5, 7.5, 7.5, 7.5, 7.5, 7.5, 7.5, 7.5, 7.5, 7.5, 7.5, 7.5, 0.0, 7.5, 7.5, 7.5, 7.5, 7.5, 7.5, 7.5, 0.0, 0.0, 7.5, 7.5, 0.0, 7.5, 7.5, 7.5, 7.5, 7.5, 7.5, 7.5, 0.0, 0.0, 0.0, 7.5, 7.5, 7.5, 7.5, 7.5, 7.5, 7.5, 7.5, 0.0, 7.5, 7.5, 7.5, 0.0, 7.5, 7.5, 7.5, 7.5, 7.5, 7.5, 7.5, 7.5, 7.5, 0.0, 7.5, 7.5, 7.5, 7.5, 0.0, 7.5, 7.5, 7.5, 0.0, 7.5, 0.0, 7.5, 7.5, 0.0, 7.5, 0, 0, 7.5, 0, 0, 0, 7.5, 7.5, 0, 0, 0, 0, 0, 0, 0, 7.5, 7.5, 0, 0, 0, 7.5, 0, 0, 0, 0, 0, 0, 0, 0, 0, 0, 0, 0, 0, 0, 0, 0, 0, 0, 7.5, 0, 0, 0, 0, 0, 0, 0, 7.5, 7.5, 0, 0, 7.5, 0, 0, 0, 0, 0, 0, 0, 7.5, 7.5, 7.5, 0, 0, 0, 0, 0, 0, 0, 0, 7.5, 0, 0, 0, 7.5, 0, 0, 0, 0, 0, 0, 0, 0, 0, 7.5, 0, 0, 0, 0, 7.5, 0, 0, 0, 7.5, 0, 7.5, 0, 0, 7.5, 0, 0, 0, 7.5, 0, 0, 0, 7.5, 7.5, 0, 0, 0, 0, 0, 0, 0, 7.5, 7.5, 0, 0, 0, 7.5, 0, 0, 0, 0, 0, 0, 0, 0, 0, 0, 0, 0, 0, 0, 0, 0, 0, 0, 7.5, 0, 0, 0, 0, 0, 0, 0, 7.5, 7.5, 0, 0, 7.5, 0, 0, 0, 0, 0, 0, 0, 7.5, 7.5, 7.5, 0, 0, 0, 0, 0, 0, 0, 0, 7.5, 0, 0, 0, 7.5, 0, 0, 0, 0, 0, 0, 0, 0, 0, 7.5, 0, 0, 0, 0, 7.5, 0, 0, 0, 7.5, 0, 7.5, 0, 0, 7.5, 0, 0, 0, 7.5, 0, 0, 0, 7.5, 7.5, 0, 0, 0, 0, 0, 0, 0, 7.5, 7.5, 0, 0, 0, 7.5, 0, 0, 0, 0, 0, 0, 0, 0, 0, 0, 0, 0, 0, 0, 0, 0, 0, 0, 7.5, 0, 0, 0, 0, 0, 0, 0, 7.5, 7.5, 0, 0, 7.5, 0, 0, 0, 0, 0, 0, 0, 7.5, 7.5, 7.5, 0, 0, 0, 0, 0, 0, 0, 0, 7.5, 0, 0, 0, 7.5, 0, 0, 0, 0, 0, 0, 0, 0, 0, 7.5, 0, 0, 0, 0, 7.5, 0, 0, 0, 7.5, 0, 7.5, 0, 0, 7.5, 0, 0, 0, 7.5, 0, 0, 0, 7.5, 7.5, 0, 0, 0, 0, 0, 0, 0, 7.5, 7.5, 0, 0, 0, 7.5, 0, 0, 0, 0, 0, 0, 0, 0, 0, 0, 0, 0, 0, 0, 0, 0, 0, 0, 7.5, 0, 0, 0, 0, 0, 0, 0, 7.5, 7.5, 0, 0, 7.5, 0, 0, 0, 0, 0, 0, 0, 7.5, 7.5, 7.5, 0, 0, 0, 0, 0, 0, 0, 0, 7.5, 0, 0, 0, 7.5, 0, 0, 0, 0, 0, 0, 0, 0, 0, 7.5, 0, 0, 0, 0, 7.5, 0, 0, 0, 7.5, 0, 7.5, 0, 0, 7.5, 0, 0, 0, 7.5, 0, 0, 0, 7.5, 7.5, 0, 0, 0, 0, 0, 0, 0, 7.5, 7.5, 0, 0, 0, 7.5, 0, 0, 0, 0, 0, 0, 0, 0, 0, 0, 0, 0, 0, 0, 0, 0, 0, 0, 7.5, 0, 0, 0, 0, 0, 0, 0, 7.5, 7.5, 0, 0, 7.5, 0, 0, 0, 0, 0, 0, 0, 7.5, 7.5, 7.5, 0, 0, 0, 0, 0, 0, 0, 0, 7.5, 0, 0, 0, 7.5, 0, 0, 0, 0, 0, 0, 0, 0, 0, 7.5, 0, 0, 0, 0, 7.5, 0, 0, 0, 7.5, 0, 7.5, 0, 0, 7.5, 0, 0, 0, 7.5, 0, 0, 0, 7.5, 7.5, 0, 0, 0, 0, 0, 0, 0, 7.5, 7.5, 0, 0, 0, 7.5, 0, 0, 0, 0, 0, 0, 0, 0, 0, 0, 0, 0, 0, 0, 0, 0, 0, 0, 7.5, 0, 0, 0, 0, 0, 0, 0, 7.5, 7.5, 0, 0, 7.5, 0, 0, 0, 0, 0, 0, 0, 7.5, 7.5, 7.5, 0, 0, 0, 0, 0, 0, 0, 0, 7.5, 0, 0, 0, 7.5, 0, 0, 0, 0, 0, 0, 0, 0, 0, 7.5, 0, 0, 0, 0, 7.5, 0, 0, 0, 7.5, 0, 7.5, 0, 0, 7.5, 0, 0, 0, 7.5, 0, 0, 0, 7.5, 7.5, 0, 0, 0, 0, 0, 0, 0, 7.5, 7.5, 0, 0, 0, 7.5, 0, 0, 0, 0, 0, 0, 0, 0, 0, 0, 0, 0, 0, 0, 0, 0, 0, 0, 7.5, 0, 0, 0, 0, 0, 0, 0, 7.5, 7.5, 0, 0, 7.5, 0, 0, 0, 0, 0, 0, 0, 7.5, 7.5, 7.5, 0, 0, 0, 0, 0, 0, 0, 0, 7.5, 0, 0, 0, 7.5, 0, 0, 0, 0, 0, 0, 0, 0, 0, 7.5, 0, 0, 0, 0, 7.5, 0, 0, 0, 7.5, 0, 7.5, 0, 0, 7.5, 0, 0, 0, 7.5, 0, 0, 0, 7.5, 7.5, 0, 0, 0, 0, 0, 0, 0, 7.5, 7.5, 0, 0, 0, 7.5, 0, 0, 0, 0, 0, 0, 0, 0, 0, 0, 0, 0, 0, 0, 0, 0, 0, 0, 7.5, 0, 0, 0, 0, 0, 0, 0, 7.5, 7.5, 0, 0, 7.5, 0, 0, 0, 0, 0, 0, 0, 7.5, 7.5, 7.5, 0, 0, 0, 0, 0, 0, 0, 0, 7.5, 0, 0, 0, 7.5, 0, 0, 0, 0, 0, 0, 0, 0, 0, 7.5, 0, 0, 0, 0, 7.5, 0, 0, 0, 7.5, 0, 7.5, 0, 0, 7.5, 0, 0, 0, 7.5, 0, 0, 0, 7.5, 7.5, 0, 0, 0, 0, 0, 0, 0, 7.5, 7.5, 0, 0, 0, 7.5, 0, 0, 0, 0, 0, 0, 0, 0, 0, 0, 0, 0, 0, 0, 0, 0, 0, 0, 7.5, 0, 0, 0, 0, 0, 0, 0, 7.5, 7.5, 0, 0, 7.5, 0, 0, 0, 0, 0, 0, 0, 7.5, 7.5, 7.5, 0, 0, 0, 0, 0, 0, 0, 0, 7.5, 0, 0, 0, 7.5, 0, 0, 0, 0, 0, 0, 0, 0, 0, 7.5, 0, 0, 0, 0, 7.5, 0, 0, 0, 7.5, 0, 7.5, 0, 0, 7.5, 0, 7.5, 7.5, 0.0, 7.5, 7.5, 7.5, 0.0, 0.0, 7.5, 7.5, 7.5, 7.5, 7.5, 7.5, 7.5, 0.0, 0.0, 7.5, 7.5, 7.5, 0.0, 7.5, 7.5, 7.5, 7.5, 7.5, 7.5, 7.5, 7.5, 7.5, 7.5, 7.5, 7.5, 7.5, 7.5, 7.5, 7.5, 7.5, 7.5, 0.0, 7.5, 7.5, 7.5, 7.5, 7.5, 7.5, 7.5, 0.0, 0.0, 7.5, 7.5, 0.0, 7.5, 7.5, 7.5, 7.5, 7.5, 7.5, 7.5, 0.0, 0.0, 0.0, 7.5, 7.5, 7.5, 7.5, 7.5, 7.5, 7.5, 7.5, 0.0, 7.5, 7.5, 7.5, 0.0, 7.5, 7.5, 7.5, 7.5, 7.5, 7.5, 7.5, 7.5, 7.5, 0.0, 7.5, 7.5, 7.5, 7.5, 0.0, 7.5, 7.5, 7.5, 0.0, 7.5, 0.0, 7.5, 7.5, 0.0, 7.5, 7.5, 7.5, 0.0, 7.5, 7.5, 7.5, 0.0, 0.0, 7.5, 7.5, 7.5, 7.5, 7.5, 7.5, 7.5, 0.0, 0.0, 7.5, 7.5, 7.5, 0.0, 7.5, 7.5, 7.5, 7.5, 7.5, 7.5, 7.5, 7.5, 7.5, 7.5, 7.5, 7.5, 7.5, 7.5, 7.5, 7.5, 7.5, 7.5, 0.0, 7.5, 7.5, 7.5, 7.5, 7.5, 7.5, 7.5, 0.0, 0.0, 7.5, 7.5, 0.0, 7.5, 7.5, 7.5, 7.5, 7.5, 7.5, 7.5, 0.0, 0.0, 0.0, 7.5, 7.5, 7.5, 7.5, 7.5, 7.5, 7.5, 7.5, 0.0, 7.5, 7.5, 7.5, 0.0, 7.5, 7.5, 7.5, 7.5, 7.5, 7.5, 7.5, 7.5, 7.5, 0.0, 7.5, 7.5, 7.5, 7.5, 0.0, 7.5, 7.5, 7.5, 0.0, 7.5, 0.0, 7.5, 7.5, 0.0, 7.5, 0, 0, 7.5, 0, 0, 0, 7.5, 7.5, 0, 0, 0, 0, 0, 0, 0, 7.5, 7.5, 0, 0, 0, 7.5, 0, 0, 0, 0, 0, 0, 0, 0, 0, 0, 0, 0, 0, 0, 0, 0, 0, 0, 7.5, 0, 0, 0, 0, 0, 0, 0, 7.5, 7.5, 0, 0, 7.5, 0, 0, 0, 0, 0, 0, 0, 7.5, 7.5, 7.5, 0, 0, 0, 0, 0, 0, 0, 0, 7.5, 0, 0, 0, 7.5, 0, 0, 0, 0, 0, 0, 0, 0, 0, 7.5, 0, 0, 0, 0, 7.5, 0, 0, 0, 7.5, 0, 7.5, 0, 0, 7.5, 0, 0, 0, 7.5, 0, 0, 0, 7.5, 7.5, 0, 0, 0, 0, 0, 0, 0, 7.5, 7.5, 0, 0, 0, 7.5, 0, 0, 0, 0, 0, 0, 0, 0, 0, 0, 0, 0, 0, 0, 0, 0, 0, 0, 7.5, 0, 0, 0, 0, 0, 0, 0, 7.5, 7.5, 0, 0, 7.5, 0, 0, 0, 0, 0, 0, 0, 7.5, 7.5, 7.5, 0, 0, 0, 0, 0, 0, 0, 0, 7.5, 0, 0, 0, 7.5, 0, 0, 0, 0, 0, 0, 0, 0, 0, 7.5, 0, 0, 0, 0, 7.5, 0, 0, 0, 7.5, 0, 7.5, 0, 0, 7.5, 0, 0, 0, 7.5, 0, 0, 0, 7.5, 7.5, 0, 0, 0, 0, 0, 0, 0, 7.5, 7.5, 0, 0, 0, 7.5, 0, 0, 0, 0, 0, 0, 0, 0, 0, 0, 0, 0, 0, 0, 0, 0, 0, 0, 7.5, 0, 0, 0, 0, 0, 0, 0, 7.5, 7.5, 0, 0, 7.5, 0, 0, 0, 0, 0, 0, 0, 7.5, 7.5, 7.5, 0, 0, 0, 0, 0, 0, 0, 0, 7.5, 0, 0, 0, 7.5, 0, 0, 0, 0, 0, 0, 0, 0, 0, 7.5, 0, 0, 0, 0, 7.5, 0, 0, 0, 7.5, 0, 7.5, 0, 0, 7.5, 0]);
